c description: Graph 3-Colorability of graph: 
c generator: CNFgen (0.9.0)
c copyright: (C) 2012-2020 Massimo Lauria <massimo.lauria@uniroma1.it>
c url: https://massimolauria.net/cnfgen
c
p cnf 150 650
1 2 3 0
-1 -2 0
-1 -3 0
-2 -3 0
4 5 6 0
-4 -5 0
-4 -6 0
-5 -6 0
7 8 9 0
-7 -8 0
-7 -9 0
-8 -9 0
10 11 12 0
-10 -11 0
-10 -12 0
-11 -12 0
13 14 15 0
-13 -14 0
-13 -15 0
-14 -15 0
16 17 18 0
-16 -17 0
-16 -18 0
-17 -18 0
19 20 21 0
-19 -20 0
-19 -21 0
-20 -21 0
22 23 24 0
-22 -23 0
-22 -24 0
-23 -24 0
25 26 27 0
-25 -26 0
-25 -27 0
-26 -27 0
28 29 30 0
-28 -29 0
-28 -30 0
-29 -30 0
31 32 33 0
-31 -32 0
-31 -33 0
-32 -33 0
34 35 36 0
-34 -35 0
-34 -36 0
-35 -36 0
37 38 39 0
-37 -38 0
-37 -39 0
-38 -39 0
40 41 42 0
-40 -41 0
-40 -42 0
-41 -42 0
43 44 45 0
-43 -44 0
-43 -45 0
-44 -45 0
46 47 48 0
-46 -47 0
-46 -48 0
-47 -48 0
49 50 51 0
-49 -50 0
-49 -51 0
-50 -51 0
52 53 54 0
-52 -53 0
-52 -54 0
-53 -54 0
55 56 57 0
-55 -56 0
-55 -57 0
-56 -57 0
58 59 60 0
-58 -59 0
-58 -60 0
-59 -60 0
61 62 63 0
-61 -62 0
-61 -63 0
-62 -63 0
64 65 66 0
-64 -65 0
-64 -66 0
-65 -66 0
67 68 69 0
-67 -68 0
-67 -69 0
-68 -69 0
70 71 72 0
-70 -71 0
-70 -72 0
-71 -72 0
73 74 75 0
-73 -74 0
-73 -75 0
-74 -75 0
76 77 78 0
-76 -77 0
-76 -78 0
-77 -78 0
79 80 81 0
-79 -80 0
-79 -81 0
-80 -81 0
82 83 84 0
-82 -83 0
-82 -84 0
-83 -84 0
85 86 87 0
-85 -86 0
-85 -87 0
-86 -87 0
88 89 90 0
-88 -89 0
-88 -90 0
-89 -90 0
91 92 93 0
-91 -92 0
-91 -93 0
-92 -93 0
94 95 96 0
-94 -95 0
-94 -96 0
-95 -96 0
97 98 99 0
-97 -98 0
-97 -99 0
-98 -99 0
100 101 102 0
-100 -101 0
-100 -102 0
-101 -102 0
103 104 105 0
-103 -104 0
-103 -105 0
-104 -105 0
106 107 108 0
-106 -107 0
-106 -108 0
-107 -108 0
109 110 111 0
-109 -110 0
-109 -111 0
-110 -111 0
112 113 114 0
-112 -113 0
-112 -114 0
-113 -114 0
115 116 117 0
-115 -116 0
-115 -117 0
-116 -117 0
118 119 120 0
-118 -119 0
-118 -120 0
-119 -120 0
121 122 123 0
-121 -122 0
-121 -123 0
-122 -123 0
124 125 126 0
-124 -125 0
-124 -126 0
-125 -126 0
127 128 129 0
-127 -128 0
-127 -129 0
-128 -129 0
130 131 132 0
-130 -131 0
-130 -132 0
-131 -132 0
133 134 135 0
-133 -134 0
-133 -135 0
-134 -135 0
136 137 138 0
-136 -137 0
-136 -138 0
-137 -138 0
139 140 141 0
-139 -140 0
-139 -141 0
-140 -141 0
142 143 144 0
-142 -143 0
-142 -144 0
-143 -144 0
145 146 147 0
-145 -146 0
-145 -147 0
-146 -147 0
148 149 150 0
-148 -149 0
-148 -150 0
-149 -150 0
-1 -10 0
-2 -11 0
-3 -12 0
-1 -31 0
-2 -32 0
-3 -33 0
-1 -58 0
-2 -59 0
-3 -60 0
-1 -79 0
-2 -80 0
-3 -81 0
-1 -88 0
-2 -89 0
-3 -90 0
-1 -112 0
-2 -113 0
-3 -114 0
-4 -7 0
-5 -8 0
-6 -9 0
-4 -10 0
-5 -11 0
-6 -12 0
-4 -13 0
-5 -14 0
-6 -15 0
-4 -31 0
-5 -32 0
-6 -33 0
-4 -34 0
-5 -35 0
-6 -36 0
-4 -55 0
-5 -56 0
-6 -57 0
-4 -61 0
-5 -62 0
-6 -63 0
-4 -73 0
-5 -74 0
-6 -75 0
-4 -79 0
-5 -80 0
-6 -81 0
-4 -85 0
-5 -86 0
-6 -87 0
-4 -130 0
-5 -131 0
-6 -132 0
-7 -40 0
-8 -41 0
-9 -42 0
-7 -70 0
-8 -71 0
-9 -72 0
-7 -85 0
-8 -86 0
-9 -87 0
-7 -109 0
-8 -110 0
-9 -111 0
-7 -118 0
-8 -119 0
-9 -120 0
-7 -130 0
-8 -131 0
-9 -132 0
-10 -52 0
-11 -53 0
-12 -54 0
-10 -64 0
-11 -65 0
-12 -66 0
-10 -73 0
-11 -74 0
-12 -75 0
-10 -100 0
-11 -101 0
-12 -102 0
-10 -106 0
-11 -107 0
-12 -108 0
-10 -145 0
-11 -146 0
-12 -147 0
-13 -76 0
-14 -77 0
-15 -78 0
-13 -97 0
-14 -98 0
-15 -99 0
-13 -145 0
-14 -146 0
-15 -147 0
-16 -82 0
-17 -83 0
-18 -84 0
-16 -91 0
-17 -92 0
-18 -93 0
-16 -97 0
-17 -98 0
-18 -99 0
-19 -31 0
-20 -32 0
-21 -33 0
-19 -37 0
-20 -38 0
-21 -39 0
-19 -43 0
-20 -44 0
-21 -45 0
-19 -46 0
-20 -47 0
-21 -48 0
-19 -70 0
-20 -71 0
-21 -72 0
-19 -94 0
-20 -95 0
-21 -96 0
-19 -106 0
-20 -107 0
-21 -108 0
-19 -130 0
-20 -131 0
-21 -132 0
-19 -142 0
-20 -143 0
-21 -144 0
-22 -25 0
-23 -26 0
-24 -27 0
-22 -37 0
-23 -38 0
-24 -39 0
-22 -49 0
-23 -50 0
-24 -51 0
-22 -55 0
-23 -56 0
-24 -57 0
-22 -76 0
-23 -77 0
-24 -78 0
-22 -124 0
-23 -125 0
-24 -126 0
-22 -130 0
-23 -131 0
-24 -132 0
-25 -40 0
-26 -41 0
-27 -42 0
-25 -49 0
-26 -50 0
-27 -51 0
-25 -64 0
-26 -65 0
-27 -66 0
-25 -70 0
-26 -71 0
-27 -72 0
-25 -76 0
-26 -77 0
-27 -78 0
-28 -40 0
-29 -41 0
-30 -42 0
-28 -43 0
-29 -44 0
-30 -45 0
-28 -52 0
-29 -53 0
-30 -54 0
-28 -109 0
-29 -110 0
-30 -111 0
-28 -121 0
-29 -122 0
-30 -123 0
-28 -139 0
-29 -140 0
-30 -141 0
-31 -97 0
-32 -98 0
-33 -99 0
-31 -112 0
-32 -113 0
-33 -114 0
-31 -148 0
-32 -149 0
-33 -150 0
-34 -43 0
-35 -44 0
-36 -45 0
-34 -46 0
-35 -47 0
-36 -48 0
-34 -73 0
-35 -74 0
-36 -75 0
-34 -109 0
-35 -110 0
-36 -111 0
-34 -124 0
-35 -125 0
-36 -126 0
-37 -55 0
-38 -56 0
-39 -57 0
-37 -58 0
-38 -59 0
-39 -60 0
-37 -73 0
-38 -74 0
-39 -75 0
-37 -91 0
-38 -92 0
-39 -93 0
-37 -142 0
-38 -143 0
-39 -144 0
-37 -145 0
-38 -146 0
-39 -147 0
-40 -118 0
-41 -119 0
-42 -120 0
-40 -145 0
-41 -146 0
-42 -147 0
-46 -52 0
-47 -53 0
-48 -54 0
-46 -64 0
-47 -65 0
-48 -66 0
-46 -70 0
-47 -71 0
-48 -72 0
-46 -100 0
-47 -101 0
-48 -102 0
-46 -127 0
-47 -128 0
-48 -129 0
-46 -133 0
-47 -134 0
-48 -135 0
-49 -64 0
-50 -65 0
-51 -66 0
-49 -100 0
-50 -101 0
-51 -102 0
-49 -145 0
-50 -146 0
-51 -147 0
-52 -76 0
-53 -77 0
-54 -78 0
-52 -82 0
-53 -83 0
-54 -84 0
-52 -112 0
-53 -113 0
-54 -114 0
-55 -76 0
-56 -77 0
-57 -78 0
-55 -85 0
-56 -86 0
-57 -87 0
-55 -121 0
-56 -122 0
-57 -123 0
-55 -133 0
-56 -134 0
-57 -135 0
-55 -136 0
-56 -137 0
-57 -138 0
-58 -70 0
-59 -71 0
-60 -72 0
-58 -76 0
-59 -77 0
-60 -78 0
-58 -88 0
-59 -89 0
-60 -90 0
-58 -124 0
-59 -125 0
-60 -126 0
-58 -130 0
-59 -131 0
-60 -132 0
-58 -142 0
-59 -143 0
-60 -144 0
-61 -100 0
-62 -101 0
-63 -102 0
-61 -106 0
-62 -107 0
-63 -108 0
-61 -121 0
-62 -122 0
-63 -123 0
-61 -124 0
-62 -125 0
-63 -126 0
-64 -97 0
-65 -98 0
-66 -99 0
-64 -124 0
-65 -125 0
-66 -126 0
-64 -133 0
-65 -134 0
-66 -135 0
-67 -103 0
-68 -104 0
-69 -105 0
-67 -145 0
-68 -146 0
-69 -147 0
-70 -79 0
-71 -80 0
-72 -81 0
-70 -106 0
-71 -107 0
-72 -108 0
-73 -91 0
-74 -92 0
-75 -93 0
-73 -127 0
-74 -128 0
-75 -129 0
-73 -136 0
-74 -137 0
-75 -138 0
-73 -145 0
-74 -146 0
-75 -147 0
-76 -97 0
-77 -98 0
-78 -99 0
-76 -115 0
-77 -116 0
-78 -117 0
-76 -121 0
-77 -122 0
-78 -123 0
-76 -139 0
-77 -140 0
-78 -141 0
-79 -148 0
-80 -149 0
-81 -150 0
-82 -94 0
-83 -95 0
-84 -96 0
-82 -97 0
-83 -98 0
-84 -99 0
-82 -103 0
-83 -104 0
-84 -105 0
-85 -88 0
-86 -89 0
-87 -90 0
-85 -103 0
-86 -104 0
-87 -105 0
-85 -118 0
-86 -119 0
-87 -120 0
-85 -136 0
-86 -137 0
-87 -138 0
-88 -91 0
-89 -92 0
-90 -93 0
-88 -97 0
-89 -98 0
-90 -99 0
-88 -148 0
-89 -149 0
-90 -150 0
-91 -97 0
-92 -98 0
-93 -99 0
-91 -133 0
-92 -134 0
-93 -135 0
-91 -145 0
-92 -146 0
-93 -147 0
-91 -148 0
-92 -149 0
-93 -150 0
-94 -109 0
-95 -110 0
-96 -111 0
-97 -124 0
-98 -125 0
-99 -126 0
-97 -127 0
-98 -128 0
-99 -129 0
-103 -139 0
-104 -140 0
-105 -141 0
-109 -115 0
-110 -116 0
-111 -117 0
-109 -127 0
-110 -128 0
-111 -129 0
-112 -127 0
-113 -128 0
-114 -129 0
-115 -121 0
-116 -122 0
-117 -123 0
-118 -136 0
-119 -137 0
-120 -138 0
-118 -148 0
-119 -149 0
-120 -150 0
-124 -139 0
-125 -140 0
-126 -141 0
-124 -148 0
-125 -149 0
-126 -150 0
-127 -142 0
-128 -143 0
-129 -144 0
-130 -139 0
-131 -140 0
-132 -141 0
-139 -145 0
-140 -146 0
-141 -147 0